(define-fun
  j4
  ((x Int)) Int x)
(define-fun
  j2
  ((x Int)) Int x)
(define-fun
  h4
  () Int (+ 1 (* 2 (+ 2 2))))
(define-fun
  h3
  ((x Int)) Int x)
(define-fun
  h2
  ((x Int)) Int x)
(define-fun
  h1
  ((x Int) (y Int)) Int y)
(define-fun
  g4
  ((x Int) (y Int)) Int (div y 2))
(define-funs-rec
  ((v4
    ((x Int) (y Int) (z Int)) Int)
   (u4
    ((x Int) (y Int) (z Int)) Int))
  ((ite (<= x 0) z (g4 (u4 (- x 1) y z) (v4 (- x 1) y z)))
   (ite (<= x 0) y (+ (u4 (- x 1) y z) (v4 (- x 1) y z)))))
(define-fun
  w4
  ((x Int)) Int (u4 h4 1 x))
(define-fun
  g2
  ((x Int) (y Int)) Int (div y 2))
(define-funs-rec
  ((v2
    ((x Int) (y Int) (z Int)) Int)
   (u2
    ((x Int) (y Int) (z Int)) Int))
  ((ite (<= x 0) z (g2 (u2 (- x 1) y z) (v2 (- x 1) y z)))
   (ite (<= x 0) y (+ (u2 (- x 1) y z) (v2 (- x 1) y z)))))
(define-fun
  w2
  ((x Int)) Int (u2 x 0 x))
(define-fun
  g0
  ((x Int)) Int x)
(define-fun
  f3
  ((x Int)) Int (+ (- (+ (mod (w4 x) 2) x) 1) x))
(define-fun-rec
  u3
  ((x Int) (y Int)) Int (ite (<= x 0) y (f3 (u3 (- x 1) y))))
(define-fun
  v3
  ((x Int)) Int (u3 2 x))
(define-fun
  fast
  ((x Int)) Int (- (* (mod (+ (v3 x) 1) (+ 2 2)) 2) 1))
(define-fun
  f1
  ((x Int)) Int (mod (w2 x) 2))
(define-fun-rec
  u1
  ((x Int) (y Int)) Int (ite (<= x 0) y (f1 (u1 (- x 1) y))))
(define-fun
  v1
  ((x Int) (y Int)) Int (u1 1 y))
(define-fun
  f0
  ((x Int) (y Int)) Int (+ (* (v1 x y) x) 2))
(define-fun-rec
  u0
  ((x Int) (y Int)) Int (ite (<= x 0) y (f0 (u0 (- x 1) y) x)))
(define-fun
  v0
  ((x Int)) Int (u0 x 2))
(define-fun
  small
  ((x Int)) Int (- (v0 x) 1))
(assert-not
  (forall ((c Int)) (or (not (>= c 0)) (= (small c) (fast c)))))
